NAME : Unnamed.235.tour
COMMENT : Length = 235
COMMENT : Found by LKH [Keld Helsgaun] Thu Oct 02 13:46:26 2014
TYPE : TOUR
DIMENSION : 17
TOUR_SECTION
1
2
17
4
7
3
8
5
9
16
15
6
11
12
14
13
10
-1
EOF
